CSW04
Position Depot: Random
Horizon for Depot: Small
Position of customers: Cluster
Distribution of the demand: Medium
Width of time windows: Wide
Distribution of the service: Small

VEHICLE 
NUMBER 	 CAPACITY 
 5 	 	 234 
 
CUSTOMER
CUST NO. 	 XCOORD.  	 YCOORD. 	 DEMAND 	 READY TIME 	 DUE DATE 	 SERVICE TIME 
 0 	 	 943 	 	 589 	 	 0 	 	 0 	 	 1777 	 	 0 
  1 	 	 500 	 	 365 	 	 8 	 	 195 	 	 546 	 	 56 
  2 	 	 292 	 	 69 	 	 3 	 	 909 	 	 1176 	 	 78 
  3 	 	 741 	 	 192 	 	 3 	 	 1330 	 	 1777 	 	 76 
  4 	 	 707 	 	 241 	 	 9 	 	 921 	 	 1404 	 	 70 
  5 	 	 803 	 	 273 	 	 10 	 	 172 	 	 380 	 	 72 
  6 	 	 651 	 	 637 	 	 9 	 	 639 	 	 1063 	 	 80 
  7 	 	 747 	 	 76 	 	 3 	 	 1030 	 	 1245 	 	 98 
  8 	 	 735 	 	 231 	 	 10 	 	 122 	 	 455 	 	 51 
  9 	 	 481 	 	 382 	 	 7 	 	 431 	 	 723 	 	 95 
  10 	 	 734 	 	 232 	 	 3 	 	 841 	 	 1139 	 	 86 
  11 	 	 730 	 	 290 	 	 8 	 	 1347 	 	 1682 	 	 79 
  12 	 	 494 	 	 386 	 	 9 	 	 911 	 	 1224 	 	 59 
  13 	 	 739 	 	 635 	 	 1 	 	 4 	 	 327 	 	 99 
  14 	 	 436 	 	 378 	 	 6 	 	 361 	 	 604 	 	 68 
  15 	 	 811 	 	 225 	 	 10 	 	 1375 	 	 1676 	 	 73 
  16 	 	 801 	 	 196 	 	 6 	 	 1469 	 	 1724 	 	 76 
  17 	 	 741 	 	 371 	 	 1 	 	 715 	 	 1085 	 	 57 
  18 	 	 571 	 	 314 	 	 2 	 	 110 	 	 578 	 	 74 
  19 	 	 872 	 	 346 	 	 6 	 	 1364 	 	 1777 	 	 83 
  20 	 	 855 	 	 333 	 	 7 	 	 289 	 	 767 	 	 71 
  21 	 	 707 	 	 265 	 	 10 	 	 240 	 	 440 	 	 52 
  22 	 	 309 	 	 191 	 	 2 	 	 704 	 	 986 	 	 99 
  23 	 	 509 	 	 388 	 	 65 	 	 1170 	 	 1639 	 	 91 
  24 	 	 790 	 	 194 	 	 6 	 	 1234 	 	 1511 	 	 61 
  25 	 	 736 	 	 161 	 	 70 	 	 1484 	 	 1777 	 	 66 
  26 	 	 747 	 	 282 	 	 6 	 	 1273 	 	 1625 	 	 62 
  27 	 	 723 	 	 307 	 	 4 	 	 714 	 	 918 	 	 52 
  28 	 	 785 	 	 202 	 	 4 	 	 737 	 	 981 	 	 79 
  29 	 	 624 	 	 573 	 	 4 	 	 338 	 	 838 	 	 52 
  30 	 	 705 	 	 78 	 	 3 	 	 1365 	 	 1654 	 	 62 
  31 	 	 563 	 	 186 	 	 10 	 	 1571 	 	 1777 	 	 65 
  32 	 	 670 	 	 245 	 	 8 	 	 345 	 	 832 	 	 89 
  33 	 	 454 	 	 264 	 	 10 	 	 432 	 	 645 	 	 90 
  34 	 	 693 	 	 785 	 	 1 	 	 1437 	 	 1686 	 	 100 
  35 	 	 443 	 	 350 	 	 6 	 	 442 	 	 723 	 	 76 
  36 	 	 751 	 	 206 	 	 78 	 	 1217 	 	 1613 	 	 69 
  37 	 	 309 	 	 120 	 	 1 	 	 489 	 	 867 	 	 64 
  38 	 	 891 	 	 525 	 	 4 	 	 407 	 	 803 	 	 97 
  39 	 	 500 	 	 393 	 	 9 	 	 685 	 	 1044 	 	 89 
  40 	 	 554 	 	 701 	 	 78 	 	 1335 	 	 1613 	 	 95 
  41 	 	 629 	 	 335 	 	 98 	 	 646 	 	 1089 	 	 84 
  42 	 	 891 	 	 239 	 	 5 	 	 1056 	 	 1437 	 	 92 
  43 	 	 776 	 	 174 	 	 3 	 	 -4 	 	 492 	 	 100 
  44 	 	 814 	 	 178 	 	 2 	 	 1349 	 	 1777 	 	 99 
  45 	 	 327 	 	 46 	 	 9 	 	 1386 	 	 1773 	 	 96 
  46 	 	 545 	 	 292 	 	 8 	 	 1171 	 	 1541 	 	 81 
  47 	 	 773 	 	 185 	 	 1 	 	 500 	 	 781 	 	 63 
  48 	 	 781 	 	 233 	 	 66 	 	 1402 	 	 1699 	 	 61 
  49 	 	 627 	 	 368 	 	 7 	 	 574 	 	 1028 	 	 87 
  50 	 	 300 	 	 2 	 	 1 	 	 987 	 	 1187 	 	 86 
  51 	 	 785 	 	 247 	 	 4 	 	 824 	 	 1109 	 	 73 
  52 	 	 654 	 	 643 	 	 62 	 	 60 	 	 527 	 	 99 
  53 	 	 787 	 	 753 	 	 9 	 	 1171 	 	 1398 	 	 54 
  54 	 	 721 	 	 197 	 	 3 	 	 196 	 	 495 	 	 61 
  55 	 	 992 	 	 262 	 	 9 	 	 79 	 	 400 	 	 60 
  56 	 	 777 	 	 44 	 	 4 	 	 223 	 	 626 	 	 98 
  57 	 	 529 	 	 356 	 	 9 	 	 1088 	 	 1534 	 	 64 
  58 	 	 306 	 	 47 	 	 58 	 	 631 	 	 920 	 	 67 
  59 	 	 938 	 	 319 	 	 9 	 	 1110 	 	 1320 	 	 89 
  60 	 	 701 	 	 192 	 	 8 	 	 245 	 	 511 	 	 63 
  61 	 	 540 	 	 385 	 	 9 	 	 1360 	 	 1701 	 	 91 
  62 	 	 786 	 	 202 	 	 8 	 	 919 	 	 1281 	 	 73 
  63 	 	 660 	 	 512 	 	 2 	 	 50 	 	 344 	 	 82 
  64 	 	 696 	 	 612 	 	 10 	 	 81 	 	 455 	 	 72 
  65 	 	 519 	 	 367 	 	 59 	 	 1003 	 	 1379 	 	 66 
  66 	 	 802 	 	 266 	 	 10 	 	 59 	 	 558 	 	 56 
  67 	 	 297 	 	 76 	 	 4 	 	 729 	 	 1005 	 	 85 
  68 	 	 771 	 	 193 	 	 9 	 	 1009 	 	 1269 	 	 99 
  69 	 	 688 	 	 627 	 	 5 	 	 977 	 	 1179 	 	 60 
  70 	 	 593 	 	 618 	 	 2 	 	 537 	 	 881 	 	 76 
  71 	 	 840 	 	 270 	 	 10 	 	 526 	 	 874 	 	 68 
  72 	 	 483 	 	 409 	 	 10 	 	 202 	 	 543 	 	 87 
  73 	 	 578 	 	 633 	 	 9 	 	 153 	 	 507 	 	 84 
  74 	 	 624 	 	 674 	 	 2 	 	 623 	 	 964 	 	 78 
  75 	 	 600 	 	 613 	 	 9 	 	 89 	 	 482 	 	 80 
  76 	 	 690 	 	 263 	 	 10 	 	 1254 	 	 1543 	 	 56 
  77 	 	 473 	 	 416 	 	 64 	 	 251 	 	 550 	 	 79 
  78 	 	 674 	 	 602 	 	 3 	 	 286 	 	 737 	 	 78 
  79 	 	 809 	 	 449 	 	 6 	 	 1344 	 	 1777 	 	 99 
  80 	 	 633 	 	 837 	 	 1 	 	 233 	 	 436 	 	 59 
  81 	 	 657 	 	 201 	 	 9 	 	 180 	 	 530 	 	 81 
  82 	 	 752 	 	 245 	 	 7 	 	 1041 	 	 1258 	 	 54 
  83 	 	 747 	 	 179 	 	 83 	 	 260 	 	 581 	 	 70 
  84 	 	 824 	 	 294 	 	 1 	 	 1248 	 	 1631 	 	 74 
  85 	 	 770 	 	 338 	 	 3 	 	 599 	 	 918 	 	 57 
  86 	 	 819 	 	 198 	 	 7 	 	 429 	 	 750 	 	 81 
  87 	 	 667 	 	 593 	 	 6 	 	 1489 	 	 1777 	 	 83 
  88 	 	 829 	 	 386 	 	 8 	 	 143 	 	 607 	 	 91 
  89 	 	 881 	 	 216 	 	 1 	 	 790 	 	 1084 	 	 82 
  90 	 	 282 	 	 49 	 	 7 	 	 1403 	 	 1777 	 	 100 
  91 	 	 306 	 	 73 	 	 2 	 	 1073 	 	 1541 	 	 87 
  92 	 	 604 	 	 428 	 	 7 	 	 761 	 	 1185 	 	 53 
  93 	 	 663 	 	 691 	 	 9 	 	 864 	 	 1161 	 	 82 
  94 	 	 727 	 	 263 	 	 10 	 	 690 	 	 997 	 	 85 
  95 	 	 553 	 	 653 	 	 3 	 	 1077 	 	 1540 	 	 80 
  96 	 	 738 	 	 223 	 	 4 	 	 24 	 	 461 	 	 52 
  97 	 	 809 	 	 309 	 	 4 	 	 1284 	 	 1613 	 	 68 
  98 	 	 852 	 	 271 	 	 5 	 	 -119 	 	 363 	 	 70 
  99 	 	 247 	 	 78 	 	 3 	 	 737 	 	 949 	 	 95 
  100 	 	 974 	 	 344 	 	 4 	 	 452 	 	 760 	 	 64 
 